\* Problem: SPY UNION*\

Minimize
 + x0 + x1 + x2 + x3 + x4 + x5 + x6 + x7 + x8 + x9 + x10 + x11 + x12 + x13 + x14 + x15 + x16 + x17 + x18 + x19 + x20 + x21 + x22 + x23 + x24 + x25 + x26 + x27 + x28 + x29 + x30 + x31 + x32 + x33 + x34 + x35 + x36 + x37 + x38 + x39 + x40 + x41 + x42 + x43 + x44 + x45 + x46 + x47 + x48 + x49 + x50 + x51 + x52 + x53 + x54 + x55 + x56 + x57 + x58 + x59 + x60 + x61 + x62 + x63 + x64 + x65 + x66 + x67 + x68 + x69 + x70 + x71 + x72 + x73 + x74 + x75 + x76 + x77 + x78 + x79 + x80 + x81 + x82 + x83 + x84 + x85 + x86 + x87 + x88 + x89 + x90 + x91 + x92 + x93 + x94 + x95 + x96 + x97 + x98 + x99 + x100 + x101 + x102 + x103 + x104 + x105 + x106 + x107 + x108 + x109 + x110 + x111 + x112 + x113 + x114 + x115 + x116 + x117 + x118 + x119 + x120 + x121 + x122 + x123 + x124 + x125 + x126 + x127 + x128 + x129 + x130 + x131 + x132 + x133 + x134 + x135 + x136 + x137 + x138 + x139 + x140 + x141 + x142 + x143 + x144 + x145 + x146 + x147 + x148 + x149 + x150 + x151 + x152 + x153 + x154 + x155 + x156 + x157 + x158 + x159 + x160 + x161 + x162 + x163 + x164 + x165 + x166 + x167 + x168 + x169 + x170 + x171 + x172 + x173 + x174 + x175 + x176 + x177 + x178 + x179 + x180 + x181 + x182 + x183 + x184 + x185 + x186 + x187 + x188 + x189 + x190 + x191 + x192 + x193 + x194 + x195 + x196 + x197 + x198 + x199

Subject To
 + x0 >= 1
 + x1 + x162 >= 1
 + x2 + x68 + x159 + x124 + x93 >= 1
 + x3 + x85 >= 0
 + x4 + x75 >= 1
 + x5 + x110 + x3 + x85 + x37 + x145 + x196 >= 3
 + x6 + x26 + x121 + x180 + x69 + x43 + x182 + x71 + x82 + x16 + x94 + x104 + x176 + x107 + x172 + x62 + x117 + x18 + x52 + x80 + x78 + x64 + x153 >= 10
 + x7 >= 0
 + x8 + x2 + x68 + x159 + x124 + x93 + x31 + x125 + x187 + x95 + x192 + x150 + x186 + x49 + x65 + x4 + x75 + x21 + x55 + x155 + x185 + x127 + x197 + x194 + x193 + x60 + x44 + x50 + x126 + x105 + x138 + x108 + x63 + x17 + x27 + x101 + x167 + x133 + x141 + x66 + x140 + x111 + x76 + x164 + x109 + x118 + x166 + x54 + x97 + x79 + x103 + x96 + x135 + x165 + x24 + x45 + x143 + x123 + x47 + x53 + x139 + x142 + x72 + x35 + x34 + x161 + x84 + x129 + x22 + x98 >= 21
 + x9 >= 1
 + x10 + x148 + x87 >= 1
 + x11 >= 0
 + x12 >= 0
 + x13 >= 0
 + x14 + x134 >= 1
 + x15 + x29 + x88 + x149 + x116 + x173 + x175 >= 0
 + x16 >= 0
 + x17 >= 1
 + x18 >= 0
 + x19 + x83 + x168 >= 1
 + x20 + x1 + x162 + x74 >= 1
 + x21 + x55 + x155 + x185 + x127 >= 2
 + x22 >= 0
 + x23 + x14 + x134 + x39 + x120 + x11 + x12 + x33 + x132 + x81 + x151 + x179 + x91 + x195 + x30 + x41 + x146 + x190 >= 8
 + x24 >= 0
 + x25 + x8 + x2 + x68 + x159 + x124 + x93 + x31 + x125 + x187 + x95 + x192 + x150 + x186 + x49 + x65 + x4 + x75 + x21 + x55 + x155 + x185 + x127 + x197 + x194 + x193 + x60 + x44 + x50 + x126 + x105 + x138 + x108 + x63 + x17 + x27 + x101 + x167 + x133 + x141 + x66 + x140 + x111 + x76 + x164 + x109 + x118 + x166 + x54 + x97 + x79 + x103 + x96 + x135 + x165 + x24 + x45 + x143 + x123 + x47 + x53 + x139 + x142 + x72 + x35 + x34 + x161 + x84 + x129 + x22 + x98 + x58 + x23 + x14 + x134 + x39 + x120 + x11 + x12 + x33 + x132 + x81 + x151 + x179 + x91 + x195 + x30 + x41 + x146 + x190 + x86 + x89 + x20 + x1 + x162 + x74 + x163 + x174 + x178 + x160 + x181 + x184 + x188 + x152 + x19 + x83 + x168 + x28 + x56 + x40 + x77 + x136 + x128 + x147 + x61 + x0 + x9 + x10 + x148 + x87 + x73 + x5 + x110 + x3 + x85 + x37 + x145 + x196 + x199 + x92 + x189 + x177 + x90 + x122 + x137 + x130 + x48 + x6 + x26 + x121 + x180 + x69 + x43 + x182 + x71 + x82 + x16 + x94 + x104 + x176 + x107 + x172 + x62 + x117 + x18 + x52 + x80 + x78 + x64 + x153 + x112 + x157 + x42 + x7 + x119 + x38 + x102 + x191 + x170 + x13 + x51 + x70 + x113 + x198 + x131 + x114 + x59 + x171 + x67 + x32 + x169 + x100 + x183 + x15 + x29 + x88 + x149 + x116 + x173 + x175 + x106 + x57 + x99 + x144 + x156 + x115 + x36 + x158 + x46 + x154 >= 58
 + x26 + x121 + x180 >= 2
 + x27 + x101 >= 0
 + x28 >= 0
 + x29 >= 0
 + x30 >= 1
 + x31 + x125 + x187 + x95 + x192 + x150 + x186 + x49 + x65 + x4 + x75 + x21 + x55 + x155 + x185 + x127 + x197 + x194 + x193 + x60 >= 10
 + x32 >= 0
 + x33 >= 1
 + x34 >= 1
 + x35 + x34 + x161 >= 1
 + x36 >= 1
 + x37 >= 0
 + x38 >= 1
 + x39 >= 0
 + x40 >= 0
 + x41 + x146 >= 1
 + x42 + x7 >= 0
 + x43 + x182 >= 0
 + x44 >= 0
 + x45 + x143 >= 1
 + x46 >= 1
 + x47 >= 0
 + x48 + x6 + x26 + x121 + x180 + x69 + x43 + x182 + x71 + x82 + x16 + x94 + x104 + x176 + x107 + x172 + x62 + x117 + x18 + x52 + x80 + x78 + x64 + x153 + x112 + x157 + x42 + x7 + x119 + x38 + x102 + x191 + x170 + x13 + x51 + x70 + x113 + x198 + x131 + x114 >= 3
 + x49 >= 0
 + x50 + x126 + x105 + x138 + x108 + x63 + x17 + x27 + x101 + x167 + x133 + x141 + x66 + x140 + x111 + x76 + x164 + x109 + x118 + x166 >= 0
 + x51 + x70 >= 1
 + x52 >= 0
 + x53 >= 0
 + x54 + x97 + x79 + x103 + x96 + x135 + x165 + x24 + x45 + x143 + x123 + x47 + x53 + x139 + x142 >= 4
 + x55 >= 0
 + x56 + x40 >= 0
 + x57 >= 0
 + x58 + x23 + x14 + x134 + x39 + x120 + x11 + x12 + x33 + x132 + x81 + x151 + x179 + x91 + x195 + x30 + x41 + x146 + x190 + x86 + x89 + x20 + x1 + x162 + x74 + x163 + x174 + x178 + x160 + x181 + x184 + x188 + x152 + x19 + x83 + x168 + x28 + x56 + x40 + x77 + x136 + x128 + x147 >= 6
 + x59 >= 0
 + x60 >= 0
 + x61 + x0 + x9 + x10 + x148 + x87 + x73 + x5 + x110 + x3 + x85 + x37 + x145 + x196 + x199 + x92 + x189 + x177 >= 2
 + x62 >= 0
 + x63 + x17 + x27 + x101 + x167 >= 1
 + x64 >= 0
 + x65 + x4 + x75 + x21 + x55 + x155 + x185 + x127 + x197 >= 1
 + x66 >= 0
 + x67 + x32 >= 0
 + x68 >= 0
 + x69 + x43 + x182 + x71 + x82 + x16 + x94 + x104 + x176 + x107 + x172 + x62 + x117 + x18 + x52 + x80 >= 1
 + x70 >= 1
 + x71 + x82 + x16 + x94 + x104 + x176 + x107 + x172 + x62 >= 0
 + x72 + x35 + x34 + x161 >= 2
 + x73 + x5 + x110 + x3 + x85 + x37 + x145 + x196 + x199 >= 0
 + x74 >= 0
 + x75 >= 0
 + x76 + x164 >= 0
 + x77 + x136 >= 1
 + x78 + x64 + x153 >= 2
 + x79 + x103 >= 0
 + x80 >= 0
 + x81 + x151 >= 1
 + x82 + x16 >= 0
 + x83 >= 0
 + x84 >= 0
 + x85 >= 1
 + x86 + x89 + x20 + x1 + x162 + x74 + x163 + x174 + x178 + x160 + x181 + x184 + x188 >= 6
 + x87 >= 1
 + x88 >= 0
 + x89 + x20 + x1 + x162 + x74 + x163 >= 0
 + x90 >= 1
 + x91 >= 0
 + x92 >= 0
 + x93 >= 1
 + x94 + x104 + x176 + x107 + x172 + x62 >= 0
 + x95 + x192 >= 0
 + x96 >= 0
 + x97 + x79 + x103 + x96 >= 1
 + x98 >= 0
 + x99 + x144 + x156 >= 0
 + x100 >= 0
 + x101 >= 0
 + x102 >= 0
 + x103 >= 0
 + x104 + x176 >= 0
 + x105 + x138 >= 1
 + x106 + x57 + x99 + x144 + x156 >= 2
 + x107 >= 0
 + x108 + x63 + x17 + x27 + x101 + x167 + x133 + x141 + x66 >= 3
 + x109 + x118 + x166 >= 0
 + x110 + x3 + x85 + x37 >= 2
 + x111 + x76 + x164 + x109 + x118 + x166 >= 1
 + x112 + x157 + x42 + x7 >= 1
 + x113 >= 1
 + x114 >= 0
 + x115 + x36 + x158 + x46 + x154 >= 0
 + x116 >= 0
 + x117 + x18 + x52 + x80 >= 1
 + x118 >= 0
 + x119 + x38 + x102 + x191 >= 1
 + x120 + x11 + x12 + x33 + x132 + x81 + x151 >= 3
 + x121 + x180 >= 0
 + x122 + x137 >= 1
 + x123 + x47 + x53 + x139 + x142 >= 2
 + x124 + x93 >= 0
 + x125 + x187 + x95 + x192 >= 2
 + x126 + x105 + x138 + x108 + x63 + x17 + x27 + x101 + x167 + x133 + x141 + x66 >= 2
 + x127 >= 0
 + x128 + x147 >= 0
 + x129 + x22 + x98 >= 1
 + x130 + x48 + x6 + x26 + x121 + x180 + x69 + x43 + x182 + x71 + x82 + x16 + x94 + x104 + x176 + x107 + x172 + x62 + x117 + x18 + x52 + x80 + x78 + x64 + x153 + x112 + x157 + x42 + x7 + x119 + x38 + x102 + x191 + x170 + x13 + x51 + x70 + x113 + x198 + x131 + x114 + x59 + x171 + x67 + x32 >= 21
 + x131 + x114 >= 0
 + x132 + x81 + x151 >= 0
 + x133 + x141 + x66 >= 1
 + x134 >= 1
 + x135 >= 0
 + x136 >= 0
 + x137 >= 1
 + x138 >= 1
 + x139 >= 0
 + x140 + x111 + x76 + x164 + x109 + x118 + x166 >= 0
 + x141 + x66 >= 0
 + x142 >= 0
 + x143 >= 0
 + x144 + x156 >= 0
 + x145 >= 0
 + x146 >= 1
 + x147 >= 0
 + x148 + x87 >= 1
 + x149 + x116 + x173 >= 2
 + x150 >= 0
 + x151 >= 0
 + x152 + x19 + x83 + x168 + x28 + x56 + x40 + x77 + x136 + x128 + x147 >= 0
 + x153 >= 1
 + x154 >= 0
 + x155 >= 1
 + x156 >= 0
 + x157 + x42 + x7 >= 0
 + x158 + x46 + x154 >= 0
 + x159 + x124 + x93 >= 1
 + x160 + x181 >= 0
 + x161 >= 0
 + x162 >= 0
 + x163 >= 0
 + x164 >= 1
 + x165 + x24 + x45 + x143 + x123 + x47 + x53 + x139 + x142 >= 3
 + x166 >= 1
 + x167 >= 0
 + x168 >= 0
 + x169 + x100 >= 1
 + x170 + x13 + x51 + x70 + x113 + x198 + x131 + x114 >= 1
 + x171 + x67 + x32 >= 0
 + x172 + x62 >= 1
 + x173 >= 1
 + x174 + x178 + x160 + x181 + x184 + x188 >= 2
 + x175 >= 0
 + x176 >= 1
 + x177 >= 1
 + x178 + x160 + x181 >= 1
 + x179 + x91 >= 1
 + x180 >= 0
 + x181 >= 0
 + x182 >= 1
 + x183 + x15 + x29 + x88 + x149 + x116 + x173 + x175 + x106 + x57 + x99 + x144 + x156 + x115 + x36 + x158 + x46 + x154 >= 1
 + x184 >= 0
 + x185 + x127 >= 1
 + x186 + x49 + x65 + x4 + x75 + x21 + x55 + x155 + x185 + x127 + x197 + x194 >= 3
 + x187 + x95 + x192 >= 0
 + x188 >= 0
 + x189 + x177 >= 0
 + x190 >= 0
 + x191 >= 1
 + x192 >= 0
 + x193 + x60 >= 0
 + x194 >= 0
 + x195 + x30 + x41 + x146 + x190 >= 0
 + x196 >= 0
 + x197 >= 0
 + x198 + x131 + x114 >= 1
 + x199 >= 0
+ x0+ x62+ x117 >= 1
+ x1+ x8+ x21+ x39+ x92+ x157+ x145+ x6+ x10+ x199+ x124+ x143+ x55+ x126+ x45+ x123+ x85+ x151+ x186+ x128+ x24+ x31+ x67+ x109+ x79+ x136+ x63+ x138+ x150+ x140+ x169+ x192+ x104+ x13+ x87 >= 10
+ x2+ x58+ x170+ x66+ x30+ x114 >= 2
+ x3 >= 0
+ x4+ x34 >= 1
+ x5 >= 0
+ x6+ x10 >= 0
+ x7 >= 0
+ x8 >= 0
+ x9+ x3+ x137+ x11+ x12+ x132+ x88+ x163+ x195+ x197+ x154+ x32+ x27+ x102+ x167+ x78+ x148 >= 8
+ x10 >= 1
+ x11 >= 0
+ x12 >= 0
+ x13 >= 0
+ x14 >= 0
+ x15 >= 1
+ x16+ x147+ x108 >= 2
+ x17 >= 0
+ x18 >= 0
+ x19 >= 0
+ x20+ x112+ x125+ x103+ x135+ x175+ x139+ x133 >= 4
+ x21+ x39+ x92+ x157+ x145+ x6+ x10+ x199+ x124+ x143+ x55+ x126+ x45+ x123+ x85+ x151+ x186+ x128+ x24+ x31 >= 8
+ x22+ x174+ x198 >= 2
+ x23+ x106+ x177+ x173+ x134+ x100+ x46 >= 2
+ x24 >= 0
+ x25 >= 0
+ x26 >= 0
+ x27 >= 0
+ x28 >= 0
+ x29+ x5+ x15+ x47+ x40+ x180+ x142+ x61 >= 3
+ x30 >= 0
+ x31 >= 1
+ x32+ x27+ x102+ x167 >= 0
+ x33 >= 0
+ x34 >= 0
+ x35 >= 0
+ x36+ x2+ x58+ x170+ x66+ x30+ x114+ x23+ x106+ x177+ x173+ x134+ x100+ x46+ x37+ x96+ x155+ x77+ x149+ x153+ x191+ x184+ x18+ x60+ x116+ x122+ x152+ x159+ x4+ x34+ x7+ x165+ x168+ x38+ x42+ x35+ x43+ x172+ x189+ x164+ x48+ x94+ x144+ x113+ x91 >= 16
+ x37+ x96+ x155+ x77+ x149+ x153+ x191+ x184+ x18+ x60+ x116+ x122+ x152+ x159+ x4+ x34+ x7+ x165+ x168+ x38+ x42+ x35+ x43+ x172+ x189+ x164 >= 13
+ x38 >= 0
+ x39+ x92+ x157 >= 2
+ x40+ x180 >= 1
+ x41+ x81+ x181+ x17+ x107+ x120+ x121 >= 1
+ x42+ x35 >= 0
+ x43 >= 0
+ x44 >= 0
+ x45+ x123+ x85 >= 1
+ x46 >= 0
+ x47+ x40+ x180 >= 0
+ x48+ x94+ x144+ x113 >= 2
+ x49+ x146 >= 1
+ x50 >= 0
+ x51+ x1+ x8+ x21+ x39+ x92+ x157+ x145+ x6+ x10+ x199+ x124+ x143+ x55+ x126+ x45+ x123+ x85+ x151+ x186+ x128+ x24+ x31+ x67+ x109+ x79+ x136+ x63+ x138+ x150+ x140+ x169+ x192+ x104+ x13+ x87+ x20+ x112+ x125+ x103+ x135+ x175+ x139+ x133+ x111+ x141+ x162+ x194+ x73+ x84+ x97+ x89+ x26+ x185+ x187+ x29+ x5+ x15+ x47+ x40+ x180+ x142+ x61+ x99+ x22+ x174+ x198+ x36+ x2+ x58+ x170+ x66+ x30+ x114+ x23+ x106+ x177+ x173+ x134+ x100+ x46+ x37+ x96+ x155+ x77+ x149+ x153+ x191+ x184+ x18+ x60+ x116+ x122+ x152+ x159+ x4+ x34+ x7+ x165+ x168+ x38+ x42+ x35+ x43+ x172+ x189+ x164+ x48+ x94+ x144+ x113+ x91+ x110+ x75+ x119+ x74+ x179+ x57+ x16+ x147+ x108+ x158+ x156+ x33+ x65+ x193+ x80+ x182+ x14+ x50+ x72+ x161+ x166+ x127+ x70+ x101+ x83+ x44+ x59+ x49+ x146+ x160+ x28+ x190+ x105+ x41+ x81+ x181+ x17+ x107+ x120+ x121+ x76+ x118+ x183+ x131+ x9+ x3+ x137+ x11+ x12+ x132+ x88+ x163+ x195+ x197+ x154+ x32+ x27+ x102+ x167+ x78+ x148+ x93+ x53+ x69+ x90+ x56+ x71+ x98+ x82+ x54+ x64+ x68+ x86+ x95+ x0+ x62+ x117+ x129+ x25+ x130+ x115+ x188+ x176+ x52+ x19+ x171+ x196+ x178 >= 45
+ x52+ x19 >= 0
+ x53 >= 0
+ x54+ x64+ x68 >= 1
+ x55 >= 1
+ x56+ x71+ x98+ x82+ x54+ x64+ x68 >= 4
+ x57+ x16+ x147+ x108+ x158 >= 0
+ x58 >= 0
+ x59+ x49+ x146+ x160+ x28+ x190 >= 0
+ x60+ x116+ x122+ x152 >= 1
+ x61 >= 0
+ x62 >= 0
+ x63 >= 0
+ x64+ x68 >= 1
+ x65 >= 0
+ x66+ x30 >= 0
+ x67+ x109+ x79+ x136+ x63+ x138+ x150+ x140+ x169+ x192 >= 2
+ x68 >= 0
+ x69+ x90+ x56+ x71+ x98+ x82+ x54+ x64+ x68 >= 0
+ x70 >= 0
+ x71+ x98 >= 0
+ x72 >= 0
+ x73 >= 0
+ x74 >= 0
+ x75 >= 0
+ x76+ x118 >= 1
+ x77+ x149+ x153 >= 1
+ x78 >= 1
+ x79+ x136+ x63+ x138+ x150+ x140 >= 1
+ x80 >= 1
+ x81 >= 0
+ x82+ x54+ x64+ x68 >= 2
+ x83+ x44+ x59+ x49+ x146+ x160+ x28+ x190 >= 3
+ x84 >= 0
+ x85 >= 0
+ x86 >= 1
+ x87 >= 0
+ x88 >= 0
+ x89+ x26 >= 0
+ x90+ x56+ x71+ x98+ x82+ x54+ x64+ x68 >= 2
+ x91 >= 0
+ x92 >= 1
+ x93+ x53+ x69+ x90+ x56+ x71+ x98+ x82+ x54+ x64+ x68+ x86+ x95+ x0+ x62+ x117+ x129+ x25+ x130+ x115+ x188 >= 5
+ x94+ x144 >= 0
+ x95+ x0+ x62+ x117 >= 0
+ x96 >= 0
+ x97+ x89+ x26 >= 0
+ x98 >= 1
+ x99+ x22+ x174+ x198+ x36+ x2+ x58+ x170+ x66+ x30+ x114+ x23+ x106+ x177+ x173+ x134+ x100+ x46+ x37+ x96+ x155+ x77+ x149+ x153+ x191+ x184+ x18+ x60+ x116+ x122+ x152+ x159+ x4+ x34+ x7+ x165+ x168+ x38+ x42+ x35+ x43+ x172+ x189+ x164+ x48+ x94+ x144+ x113+ x91+ x110+ x75+ x119+ x74+ x179+ x57+ x16+ x147+ x108+ x158+ x156+ x33+ x65+ x193+ x80+ x182+ x14+ x50+ x72+ x161+ x166 >= 9
+ x100+ x46 >= 1
+ x101+ x83+ x44+ x59+ x49+ x146+ x160+ x28+ x190 >= 2
+ x102 >= 0
+ x103 >= 0
+ x104+ x13+ x87 >= 0
+ x105+ x41+ x81+ x181+ x17+ x107+ x120+ x121+ x76+ x118+ x183 >= 2
+ x106+ x177+ x173 >= 0
+ x107 >= 0
+ x108 >= 0
+ x109+ x79+ x136+ x63+ x138+ x150+ x140+ x169 >= 4
+ x110+ x75 >= 0
+ x111 >= 1
+ x112+ x125+ x103+ x135+ x175+ x139 >= 1
+ x113 >= 0
+ x114 >= 0
+ x115 >= 0
+ x116+ x122 >= 0
+ x117 >= 0
+ x118 >= 0
+ x119+ x74+ x179+ x57+ x16+ x147+ x108+ x158+ x156+ x33+ x65+ x193+ x80+ x182+ x14+ x50+ x72+ x161+ x166 >= 5
+ x120 >= 1
+ x121 >= 0
+ x122 >= 0
+ x123+ x85 >= 0
+ x124+ x143+ x55 >= 0
+ x125+ x103+ x135+ x175+ x139 >= 3
+ x126+ x45+ x123+ x85 >= 1
+ x127+ x70+ x101+ x83+ x44+ x59+ x49+ x146+ x160+ x28+ x190+ x105+ x41+ x81+ x181+ x17+ x107+ x120+ x121+ x76+ x118+ x183 >= 8
+ x128+ x24+ x31 >= 1
+ x129+ x25+ x130+ x115+ x188 >= 0
+ x130+ x115 >= 0
+ x131+ x9+ x3+ x137+ x11+ x12+ x132+ x88+ x163+ x195+ x197+ x154+ x32+ x27+ x102+ x167+ x78+ x148+ x93+ x53+ x69+ x90+ x56+ x71+ x98+ x82+ x54+ x64+ x68+ x86+ x95+ x0+ x62+ x117+ x129+ x25+ x130+ x115+ x188 >= 16
+ x132+ x88+ x163+ x195+ x197 >= 0
+ x133 >= 0
+ x134+ x100+ x46 >= 1
+ x135+ x175 >= 0
+ x136+ x63 >= 0
+ x137+ x11+ x12+ x132+ x88+ x163+ x195+ x197+ x154+ x32+ x27+ x102+ x167+ x78+ x148 >= 3
+ x138+ x150 >= 0
+ x139 >= 1
+ x140 >= 0
+ x141 >= 0
+ x142+ x61 >= 1
+ x143+ x55 >= 0
+ x144 >= 0
+ x145+ x6+ x10+ x199+ x124+ x143+ x55+ x126+ x45+ x123+ x85 >= 2
+ x146 >= 0
+ x147+ x108 >= 1
+ x148 >= 0
+ x149+ x153 >= 0
+ x150 >= 1
+ x151+ x186+ x128+ x24+ x31 >= 0
+ x152 >= 0
+ x153 >= 1
+ x154+ x32+ x27+ x102+ x167+ x78+ x148 >= 1
+ x155+ x77+ x149+ x153+ x191 >= 0
+ x156+ x33+ x65 >= 0
+ x157 >= 0
+ x158 >= 1
+ x159+ x4+ x34+ x7 >= 2
+ x160+ x28 >= 0
+ x161 >= 0
+ x162+ x194+ x73+ x84+ x97+ x89+ x26+ x185 >= 2
+ x163 >= 0
+ x164 >= 0
+ x165 >= 0
+ x166 >= 0
+ x167 >= 0
+ x168+ x38+ x42+ x35+ x43 >= 1
+ x169 >= 0
+ x170+ x66+ x30+ x114 >= 1
+ x171 >= 0
+ x172 >= 1
+ x173 >= 0
+ x174+ x198 >= 0
+ x175 >= 0
+ x176+ x52+ x19+ x171 >= 0
+ x177+ x173 >= 1
+ x178 >= 0
+ x179+ x57+ x16+ x147+ x108+ x158+ x156+ x33+ x65 >= 4
+ x180 >= 0
+ x181+ x17+ x107+ x120+ x121 >= 3
+ x182+ x14+ x50+ x72+ x161+ x166 >= 0
+ x183 >= 0
+ x184+ x18+ x60+ x116+ x122+ x152+ x159+ x4+ x34+ x7+ x165+ x168+ x38+ x42+ x35+ x43+ x172 >= 6
+ x185 >= 0
+ x186+ x128+ x24+ x31 >= 0
+ x187+ x29+ x5+ x15+ x47+ x40+ x180+ x142+ x61+ x99+ x22+ x174+ x198+ x36+ x2+ x58+ x170+ x66+ x30+ x114+ x23+ x106+ x177+ x173+ x134+ x100+ x46+ x37+ x96+ x155+ x77+ x149+ x153+ x191+ x184+ x18+ x60+ x116+ x122+ x152+ x159+ x4+ x34+ x7+ x165+ x168+ x38+ x42+ x35+ x43+ x172+ x189+ x164+ x48+ x94+ x144+ x113+ x91+ x110+ x75+ x119+ x74+ x179+ x57+ x16+ x147+ x108+ x158+ x156+ x33+ x65+ x193+ x80+ x182+ x14+ x50+ x72+ x161+ x166+ x127+ x70+ x101+ x83+ x44+ x59+ x49+ x146+ x160+ x28+ x190+ x105+ x41+ x81+ x181+ x17+ x107+ x120+ x121+ x76+ x118+ x183+ x131+ x9+ x3+ x137+ x11+ x12+ x132+ x88+ x163+ x195+ x197+ x154+ x32+ x27+ x102+ x167+ x78+ x148+ x93+ x53+ x69+ x90+ x56+ x71+ x98+ x82+ x54+ x64+ x68+ x86+ x95+ x0+ x62+ x117+ x129+ x25+ x130+ x115+ x188+ x176+ x52+ x19+ x171 >= 64
+ x188 >= 0
+ x189+ x164 >= 0
+ x190 >= 0
+ x191 >= 0
+ x192 >= 0
+ x193+ x80+ x182+ x14+ x50+ x72+ x161+ x166 >= 2
+ x194+ x73+ x84+ x97+ x89+ x26+ x185 >= 1
+ x195 >= 1
+ x196+ x178 >= 1
+ x197 >= 0
+ x198 >= 0
+ x199+ x124+ x143+ x55+ x126+ x45+ x123+ x85 >= 0


Bounds
0 <= x0 <= 1
0 <= x1 <= 1
0 <= x2 <= 1
0 <= x3 <= 1
0 <= x4 <= 1
0 <= x5 <= 1
0 <= x6 <= 1
0 <= x7 <= 1
0 <= x8 <= 1
0 <= x9 <= 1
0 <= x10 <= 1
0 <= x11 <= 1
0 <= x12 <= 1
0 <= x13 <= 1
0 <= x14 <= 1
0 <= x15 <= 1
0 <= x16 <= 1
0 <= x17 <= 1
0 <= x18 <= 1
0 <= x19 <= 1
0 <= x20 <= 1
0 <= x21 <= 1
0 <= x22 <= 1
0 <= x23 <= 1
0 <= x24 <= 1
0 <= x25 <= 1
0 <= x26 <= 1
0 <= x27 <= 1
0 <= x28 <= 1
0 <= x29 <= 1
0 <= x30 <= 1
0 <= x31 <= 1
0 <= x32 <= 1
0 <= x33 <= 1
0 <= x34 <= 1
0 <= x35 <= 1
0 <= x36 <= 1
0 <= x37 <= 1
0 <= x38 <= 1
0 <= x39 <= 1
0 <= x40 <= 1
0 <= x41 <= 1
0 <= x42 <= 1
0 <= x43 <= 1
0 <= x44 <= 1
0 <= x45 <= 1
0 <= x46 <= 1
0 <= x47 <= 1
0 <= x48 <= 1
0 <= x49 <= 1
0 <= x50 <= 1
0 <= x51 <= 1
0 <= x52 <= 1
0 <= x53 <= 1
0 <= x54 <= 1
0 <= x55 <= 1
0 <= x56 <= 1
0 <= x57 <= 1
0 <= x58 <= 1
0 <= x59 <= 1
0 <= x60 <= 1
0 <= x61 <= 1
0 <= x62 <= 1
0 <= x63 <= 1
0 <= x64 <= 1
0 <= x65 <= 1
0 <= x66 <= 1
0 <= x67 <= 1
0 <= x68 <= 1
0 <= x69 <= 1
0 <= x70 <= 1
0 <= x71 <= 1
0 <= x72 <= 1
0 <= x73 <= 1
0 <= x74 <= 1
0 <= x75 <= 1
0 <= x76 <= 1
0 <= x77 <= 1
0 <= x78 <= 1
0 <= x79 <= 1
0 <= x80 <= 1
0 <= x81 <= 1
0 <= x82 <= 1
0 <= x83 <= 1
0 <= x84 <= 1
0 <= x85 <= 1
0 <= x86 <= 1
0 <= x87 <= 1
0 <= x88 <= 1
0 <= x89 <= 1
0 <= x90 <= 1
0 <= x91 <= 1
0 <= x92 <= 1
0 <= x93 <= 1
0 <= x94 <= 1
0 <= x95 <= 1
0 <= x96 <= 1
0 <= x97 <= 1
0 <= x98 <= 1
0 <= x99 <= 1
0 <= x100 <= 1
0 <= x101 <= 1
0 <= x102 <= 1
0 <= x103 <= 1
0 <= x104 <= 1
0 <= x105 <= 1
0 <= x106 <= 1
0 <= x107 <= 1
0 <= x108 <= 1
0 <= x109 <= 1
0 <= x110 <= 1
0 <= x111 <= 1
0 <= x112 <= 1
0 <= x113 <= 1
0 <= x114 <= 1
0 <= x115 <= 1
0 <= x116 <= 1
0 <= x117 <= 1
0 <= x118 <= 1
0 <= x119 <= 1
0 <= x120 <= 1
0 <= x121 <= 1
0 <= x122 <= 1
0 <= x123 <= 1
0 <= x124 <= 1
0 <= x125 <= 1
0 <= x126 <= 1
0 <= x127 <= 1
0 <= x128 <= 1
0 <= x129 <= 1
0 <= x130 <= 1
0 <= x131 <= 1
0 <= x132 <= 1
0 <= x133 <= 1
0 <= x134 <= 1
0 <= x135 <= 1
0 <= x136 <= 1
0 <= x137 <= 1
0 <= x138 <= 1
0 <= x139 <= 1
0 <= x140 <= 1
0 <= x141 <= 1
0 <= x142 <= 1
0 <= x143 <= 1
0 <= x144 <= 1
0 <= x145 <= 1
0 <= x146 <= 1
0 <= x147 <= 1
0 <= x148 <= 1
0 <= x149 <= 1
0 <= x150 <= 1
0 <= x151 <= 1
0 <= x152 <= 1
0 <= x153 <= 1
0 <= x154 <= 1
0 <= x155 <= 1
0 <= x156 <= 1
0 <= x157 <= 1
0 <= x158 <= 1
0 <= x159 <= 1
0 <= x160 <= 1
0 <= x161 <= 1
0 <= x162 <= 1
0 <= x163 <= 1
0 <= x164 <= 1
0 <= x165 <= 1
0 <= x166 <= 1
0 <= x167 <= 1
0 <= x168 <= 1
0 <= x169 <= 1
0 <= x170 <= 1
0 <= x171 <= 1
0 <= x172 <= 1
0 <= x173 <= 1
0 <= x174 <= 1
0 <= x175 <= 1
0 <= x176 <= 1
0 <= x177 <= 1
0 <= x178 <= 1
0 <= x179 <= 1
0 <= x180 <= 1
0 <= x181 <= 1
0 <= x182 <= 1
0 <= x183 <= 1
0 <= x184 <= 1
0 <= x185 <= 1
0 <= x186 <= 1
0 <= x187 <= 1
0 <= x188 <= 1
0 <= x189 <= 1
0 <= x190 <= 1
0 <= x191 <= 1
0 <= x192 <= 1
0 <= x193 <= 1
0 <= x194 <= 1
0 <= x195 <= 1
0 <= x196 <= 1
0 <= x197 <= 1
0 <= x198 <= 1
0 <= x199 <= 1


Generals
x0
x1
x2
x3
x4
x5
x6
x7
x8
x9
x10
x11
x12
x13
x14
x15
x16
x17
x18
x19
x20
x21
x22
x23
x24
x25
x26
x27
x28
x29
x30
x31
x32
x33
x34
x35
x36
x37
x38
x39
x40
x41
x42
x43
x44
x45
x46
x47
x48
x49
x50
x51
x52
x53
x54
x55
x56
x57
x58
x59
x60
x61
x62
x63
x64
x65
x66
x67
x68
x69
x70
x71
x72
x73
x74
x75
x76
x77
x78
x79
x80
x81
x82
x83
x84
x85
x86
x87
x88
x89
x90
x91
x92
x93
x94
x95
x96
x97
x98
x99
x100
x101
x102
x103
x104
x105
x106
x107
x108
x109
x110
x111
x112
x113
x114
x115
x116
x117
x118
x119
x120
x121
x122
x123
x124
x125
x126
x127
x128
x129
x130
x131
x132
x133
x134
x135
x136
x137
x138
x139
x140
x141
x142
x143
x144
x145
x146
x147
x148
x149
x150
x151
x152
x153
x154
x155
x156
x157
x158
x159
x160
x161
x162
x163
x164
x165
x166
x167
x168
x169
x170
x171
x172
x173
x174
x175
x176
x177
x178
x179
x180
x181
x182
x183
x184
x185
x186
x187
x188
x189
x190
x191
x192
x193
x194
x195
x196
x197
x198
x199
